13
0 1 2 3 1 4 0 5 0 6 4 4 7 5 8 7 9 6 9 7 0 6 2 10 1 1 4 0 11 7 4 7 6 10 8 9 8 8 7 10 10 9 4 8 6 6 5 7 9 7 12 10 3 3 8 2 0 0 12 3 11 6 2 7 2 0 11 4 11 8 1 0 11 1 5 4 4 3 7 8 8 0 6 2 11 11 7 6 4 0 5 2 1 12 8 2 1 9 6 3 
